(set-logic QF_LRA)
(declare-fun X0 () Real )
(declare-fun Y0 () Real )
(declare-fun X1 () Real )
(declare-fun Y1 () Real )
(declare-fun X2 () Real )
(declare-fun Y2 () Real )
(declare-fun X3 () Real )
(declare-fun Y3 () Real )
(declare-fun X4 () Real )
(declare-fun Y4 () Real )
(declare-fun X5 () Real )
(declare-fun Y5 () Real )
(declare-fun X6 () Real )
(declare-fun Y6 () Real )
(declare-fun X7 () Real )
(declare-fun Y7 () Real )
(declare-fun X8 () Real )
(declare-fun Y8 () Real )
(declare-fun X9 () Real )
(declare-fun Y9 () Real )
(declare-fun X10 () Real )
(declare-fun Y10 () Real )
(declare-fun X11 () Real )
(declare-fun Y11 () Real )
(declare-fun Z () Real )
(assert ( and  
( or ( <= ( + X0 91 ) X1 )  ( <= ( + X1 81 ) X0 )  ( <= ( + Y0 91 ) Y1 )  ( <= ( + Y1 90 ) Y0 )  )
( or ( <= ( + X0 91 ) X2 )  ( <= ( + X2 33 ) X0 )  ( <= ( + Y0 91 ) Y2 )  ( <= ( + Y2 22 ) Y0 )  )
( or ( <= ( + X0 91 ) X3 )  ( <= ( + X3 76 ) X0 )  ( <= ( + Y0 91 ) Y3 )  ( <= ( + Y3 76 ) Y0 )  )
( or ( <= ( + X0 91 ) X4 )  ( <= ( + X4 11 ) X0 )  ( <= ( + Y0 91 ) Y4 )  ( <= ( + Y4 82 ) Y0 )  )
( or ( <= ( + X0 91 ) X5 )  ( <= ( + X5 25 ) X0 )  ( <= ( + Y0 91 ) Y5 )  ( <= ( + Y5 80 ) Y0 )  )
( or ( <= ( + X0 91 ) X6 )  ( <= ( + X6 93 ) X0 )  ( <= ( + Y0 91 ) Y6 )  ( <= ( + Y6 91 ) Y0 )  )
( or ( <= ( + X0 91 ) X7 )  ( <= ( + X7 62 ) X0 )  ( <= ( + Y0 91 ) Y7 )  ( <= ( + Y7 30 ) Y0 )  )
( or ( <= ( + X0 91 ) X8 )  ( <= ( + X8 64 ) X0 )  ( <= ( + Y0 91 ) Y8 )  ( <= ( + Y8 22 ) Y0 )  )
( or ( <= ( + X0 91 ) X9 )  ( <= ( + X9 28 ) X0 )  ( <= ( + Y0 91 ) Y9 )  ( <= ( + Y9 18 ) Y0 )  )
( or ( <= ( + X0 91 ) X10 )  ( <= ( + X10 24 ) X0 )  ( <= ( + Y0 91 ) Y10 )  ( <= ( + Y10 12 ) Y0 )  )
( or ( <= ( + X0 91 ) X11 )  ( <= ( + X11 51 ) X0 )  ( <= ( + Y0 91 ) Y11 )  ( <= ( + Y11 25 ) Y0 )  )
( or ( <= ( + X1 81 ) X2 )  ( <= ( + X2 33 ) X1 )  ( <= ( + Y1 90 ) Y2 )  ( <= ( + Y2 22 ) Y1 )  )
( or ( <= ( + X1 81 ) X3 )  ( <= ( + X3 76 ) X1 )  ( <= ( + Y1 90 ) Y3 )  ( <= ( + Y3 76 ) Y1 )  )
( or ( <= ( + X1 81 ) X4 )  ( <= ( + X4 11 ) X1 )  ( <= ( + Y1 90 ) Y4 )  ( <= ( + Y4 82 ) Y1 )  )
( or ( <= ( + X1 81 ) X5 )  ( <= ( + X5 25 ) X1 )  ( <= ( + Y1 90 ) Y5 )  ( <= ( + Y5 80 ) Y1 )  )
( or ( <= ( + X1 81 ) X6 )  ( <= ( + X6 93 ) X1 )  ( <= ( + Y1 90 ) Y6 )  ( <= ( + Y6 91 ) Y1 )  )
( or ( <= ( + X1 81 ) X7 )  ( <= ( + X7 62 ) X1 )  ( <= ( + Y1 90 ) Y7 )  ( <= ( + Y7 30 ) Y1 )  )
( or ( <= ( + X1 81 ) X8 )  ( <= ( + X8 64 ) X1 )  ( <= ( + Y1 90 ) Y8 )  ( <= ( + Y8 22 ) Y1 )  )
( or ( <= ( + X1 81 ) X9 )  ( <= ( + X9 28 ) X1 )  ( <= ( + Y1 90 ) Y9 )  ( <= ( + Y9 18 ) Y1 )  )
( or ( <= ( + X1 81 ) X10 )  ( <= ( + X10 24 ) X1 )  ( <= ( + Y1 90 ) Y10 )  ( <= ( + Y10 12 ) Y1 )  )
( or ( <= ( + X1 81 ) X11 )  ( <= ( + X11 51 ) X1 )  ( <= ( + Y1 90 ) Y11 )  ( <= ( + Y11 25 ) Y1 )  )
( or ( <= ( + X2 33 ) X3 )  ( <= ( + X3 76 ) X2 )  ( <= ( + Y2 22 ) Y3 )  ( <= ( + Y3 76 ) Y2 )  )
( or ( <= ( + X2 33 ) X4 )  ( <= ( + X4 11 ) X2 )  ( <= ( + Y2 22 ) Y4 )  ( <= ( + Y4 82 ) Y2 )  )
( or ( <= ( + X2 33 ) X5 )  ( <= ( + X5 25 ) X2 )  ( <= ( + Y2 22 ) Y5 )  ( <= ( + Y5 80 ) Y2 )  )
( or ( <= ( + X2 33 ) X6 )  ( <= ( + X6 93 ) X2 )  ( <= ( + Y2 22 ) Y6 )  ( <= ( + Y6 91 ) Y2 )  )
( or ( <= ( + X2 33 ) X7 )  ( <= ( + X7 62 ) X2 )  ( <= ( + Y2 22 ) Y7 )  ( <= ( + Y7 30 ) Y2 )  )
( or ( <= ( + X2 33 ) X8 )  ( <= ( + X8 64 ) X2 )  ( <= ( + Y2 22 ) Y8 )  ( <= ( + Y8 22 ) Y2 )  )
( or ( <= ( + X2 33 ) X9 )  ( <= ( + X9 28 ) X2 )  ( <= ( + Y2 22 ) Y9 )  ( <= ( + Y9 18 ) Y2 )  )
( or ( <= ( + X2 33 ) X10 )  ( <= ( + X10 24 ) X2 )  ( <= ( + Y2 22 ) Y10 )  ( <= ( + Y10 12 ) Y2 )  )
( or ( <= ( + X2 33 ) X11 )  ( <= ( + X11 51 ) X2 )  ( <= ( + Y2 22 ) Y11 )  ( <= ( + Y11 25 ) Y2 )  )
( or ( <= ( + X3 76 ) X4 )  ( <= ( + X4 11 ) X3 )  ( <= ( + Y3 76 ) Y4 )  ( <= ( + Y4 82 ) Y3 )  )
( or ( <= ( + X3 76 ) X5 )  ( <= ( + X5 25 ) X3 )  ( <= ( + Y3 76 ) Y5 )  ( <= ( + Y5 80 ) Y3 )  )
( or ( <= ( + X3 76 ) X6 )  ( <= ( + X6 93 ) X3 )  ( <= ( + Y3 76 ) Y6 )  ( <= ( + Y6 91 ) Y3 )  )
( or ( <= ( + X3 76 ) X7 )  ( <= ( + X7 62 ) X3 )  ( <= ( + Y3 76 ) Y7 )  ( <= ( + Y7 30 ) Y3 )  )
( or ( <= ( + X3 76 ) X8 )  ( <= ( + X8 64 ) X3 )  ( <= ( + Y3 76 ) Y8 )  ( <= ( + Y8 22 ) Y3 )  )
( or ( <= ( + X3 76 ) X9 )  ( <= ( + X9 28 ) X3 )  ( <= ( + Y3 76 ) Y9 )  ( <= ( + Y9 18 ) Y3 )  )
( or ( <= ( + X3 76 ) X10 )  ( <= ( + X10 24 ) X3 )  ( <= ( + Y3 76 ) Y10 )  ( <= ( + Y10 12 ) Y3 )  )
( or ( <= ( + X3 76 ) X11 )  ( <= ( + X11 51 ) X3 )  ( <= ( + Y3 76 ) Y11 )  ( <= ( + Y11 25 ) Y3 )  )
( or ( <= ( + X4 11 ) X5 )  ( <= ( + X5 25 ) X4 )  ( <= ( + Y4 82 ) Y5 )  ( <= ( + Y5 80 ) Y4 )  )
( or ( <= ( + X4 11 ) X6 )  ( <= ( + X6 93 ) X4 )  ( <= ( + Y4 82 ) Y6 )  ( <= ( + Y6 91 ) Y4 )  )
( or ( <= ( + X4 11 ) X7 )  ( <= ( + X7 62 ) X4 )  ( <= ( + Y4 82 ) Y7 )  ( <= ( + Y7 30 ) Y4 )  )
( or ( <= ( + X4 11 ) X8 )  ( <= ( + X8 64 ) X4 )  ( <= ( + Y4 82 ) Y8 )  ( <= ( + Y8 22 ) Y4 )  )
( or ( <= ( + X4 11 ) X9 )  ( <= ( + X9 28 ) X4 )  ( <= ( + Y4 82 ) Y9 )  ( <= ( + Y9 18 ) Y4 )  )
( or ( <= ( + X4 11 ) X10 )  ( <= ( + X10 24 ) X4 )  ( <= ( + Y4 82 ) Y10 )  ( <= ( + Y10 12 ) Y4 )  )
( or ( <= ( + X4 11 ) X11 )  ( <= ( + X11 51 ) X4 )  ( <= ( + Y4 82 ) Y11 )  ( <= ( + Y11 25 ) Y4 )  )
( or ( <= ( + X5 25 ) X6 )  ( <= ( + X6 93 ) X5 )  ( <= ( + Y5 80 ) Y6 )  ( <= ( + Y6 91 ) Y5 )  )
( or ( <= ( + X5 25 ) X7 )  ( <= ( + X7 62 ) X5 )  ( <= ( + Y5 80 ) Y7 )  ( <= ( + Y7 30 ) Y5 )  )
( or ( <= ( + X5 25 ) X8 )  ( <= ( + X8 64 ) X5 )  ( <= ( + Y5 80 ) Y8 )  ( <= ( + Y8 22 ) Y5 )  )
( or ( <= ( + X5 25 ) X9 )  ( <= ( + X9 28 ) X5 )  ( <= ( + Y5 80 ) Y9 )  ( <= ( + Y9 18 ) Y5 )  )
( or ( <= ( + X5 25 ) X10 )  ( <= ( + X10 24 ) X5 )  ( <= ( + Y5 80 ) Y10 )  ( <= ( + Y10 12 ) Y5 )  )
( or ( <= ( + X5 25 ) X11 )  ( <= ( + X11 51 ) X5 )  ( <= ( + Y5 80 ) Y11 )  ( <= ( + Y11 25 ) Y5 )  )
( or ( <= ( + X6 93 ) X7 )  ( <= ( + X7 62 ) X6 )  ( <= ( + Y6 91 ) Y7 )  ( <= ( + Y7 30 ) Y6 )  )
( or ( <= ( + X6 93 ) X8 )  ( <= ( + X8 64 ) X6 )  ( <= ( + Y6 91 ) Y8 )  ( <= ( + Y8 22 ) Y6 )  )
( or ( <= ( + X6 93 ) X9 )  ( <= ( + X9 28 ) X6 )  ( <= ( + Y6 91 ) Y9 )  ( <= ( + Y9 18 ) Y6 )  )
( or ( <= ( + X6 93 ) X10 )  ( <= ( + X10 24 ) X6 )  ( <= ( + Y6 91 ) Y10 )  ( <= ( + Y10 12 ) Y6 )  )
( or ( <= ( + X6 93 ) X11 )  ( <= ( + X11 51 ) X6 )  ( <= ( + Y6 91 ) Y11 )  ( <= ( + Y11 25 ) Y6 )  )
( or ( <= ( + X7 62 ) X8 )  ( <= ( + X8 64 ) X7 )  ( <= ( + Y7 30 ) Y8 )  ( <= ( + Y8 22 ) Y7 )  )
( or ( <= ( + X7 62 ) X9 )  ( <= ( + X9 28 ) X7 )  ( <= ( + Y7 30 ) Y9 )  ( <= ( + Y9 18 ) Y7 )  )
( or ( <= ( + X7 62 ) X10 )  ( <= ( + X10 24 ) X7 )  ( <= ( + Y7 30 ) Y10 )  ( <= ( + Y10 12 ) Y7 )  )
( or ( <= ( + X7 62 ) X11 )  ( <= ( + X11 51 ) X7 )  ( <= ( + Y7 30 ) Y11 )  ( <= ( + Y11 25 ) Y7 )  )
( or ( <= ( + X8 64 ) X9 )  ( <= ( + X9 28 ) X8 )  ( <= ( + Y8 22 ) Y9 )  ( <= ( + Y9 18 ) Y8 )  )
( or ( <= ( + X8 64 ) X10 )  ( <= ( + X10 24 ) X8 )  ( <= ( + Y8 22 ) Y10 )  ( <= ( + Y10 12 ) Y8 )  )
( or ( <= ( + X8 64 ) X11 )  ( <= ( + X11 51 ) X8 )  ( <= ( + Y8 22 ) Y11 )  ( <= ( + Y11 25 ) Y8 )  )
( or ( <= ( + X9 28 ) X10 )  ( <= ( + X10 24 ) X9 )  ( <= ( + Y9 18 ) Y10 )  ( <= ( + Y10 12 ) Y9 )  )
( or ( <= ( + X9 28 ) X11 )  ( <= ( + X11 51 ) X9 )  ( <= ( + Y9 18 ) Y11 )  ( <= ( + Y11 25 ) Y9 )  )
( or ( <= ( + X10 24 ) X11 )  ( <= ( + X11 51 ) X10 )  ( <= ( + Y10 12 ) Y11 )  ( <= ( + Y11 25 ) Y10 )  )
( >= X0 0)
( <= ( + X0 91) Z)
( >= Y0 0)
( <= ( + Y0 91 ) 173)
( >= X1 0)
( <= ( + X1 81) Z)
( >= Y1 0)
( <= ( + Y1 90 ) 173)
( >= X2 0)
( <= ( + X2 33) Z)
( >= Y2 0)
( <= ( + Y2 22 ) 173)
( >= X3 0)
( <= ( + X3 76) Z)
( >= Y3 0)
( <= ( + Y3 76 ) 173)
( >= X4 0)
( <= ( + X4 11) Z)
( >= Y4 0)
( <= ( + Y4 82 ) 173)
( >= X5 0)
( <= ( + X5 25) Z)
( >= Y5 0)
( <= ( + Y5 80 ) 173)
( >= X6 0)
( <= ( + X6 93) Z)
( >= Y6 0)
( <= ( + Y6 91 ) 173)
( >= X7 0)
( <= ( + X7 62) Z)
( >= Y7 0)
( <= ( + Y7 30 ) 173)
( >= X8 0)
( <= ( + X8 64) Z)
( >= Y8 0)
( <= ( + Y8 22 ) 173)
( >= X9 0)
( <= ( + X9 28) Z)
( >= Y9 0)
( <= ( + Y9 18 ) 173)
( >= X10 0)
( <= ( + X10 24) Z)
( >= Y10 0)
( <= ( + Y10 12 ) 173)
( >= X11 0)
( <= ( + X11 51) Z)
( >= Y11 0)
( <= ( + Y11 25 ) 173)
) )
(minimize Z)
(check-sat)
